NAME : in_house_7_7
TYPE : TSP
DIMENSION : 7
EDGE_WEIGHT_TYPE : EXPLICIT
EDGE_WEIGHT_FORMAT : UPPER_ROW
COMMENT : INVERSION_SHIFT=5
EDGE_WEIGHT_SECTION
40
15
12
26
22
9
3
36
5
48
13
41
47
23
15
32
9
39
28
36
33
